MARKOV
742
 2 2 2 2 2 2 2 2 2 2 2 2 2 2 2 2 2 2 2 2 2 2 2 2 2 2 2 2 2 2 2 2 2 2 2 2 2 2 2 2 2 2 2 2 2 2 2 2 2 2 2 2 2 2 2 2 2 2 2 2 2 2 2 2 2 2 2 2 2 2 2 2 2 2 2 2 2 2 2 2 2 2 2 2 2 2 2 2 2 2 2 2 2 2 2 2 2 2 2 2 2 2 2 2 2 2 2 2 2 2 2 2 2 2 2 2 2 2 2 2 2 2 2 2 2 2 2 2 2 2 2 2 2 2 2 2 2 2 2 2 2 2 2 2 2 2 2 2 2 2 2 2 2 2 2 2 2 2 2 2 2 2 2 2 2 2 2 2 2 2 2 2 2 2 2 2 2 2 2 2 2 2 2 2 2 2 2 2 2 2 2 2 2 2 2 2 2 2 2 2 2 2 2 2 2 2 2 2 2 2 2 2 2 2 2 2 2 2 2 2 2 2 2 2 2 2 2 2 2 2 2 2 2 2 2 2 2 2 2 2 2 2 2 2 2 2 2 2 2 2 2 2 2 2 2 2 2 2 2 2 2 2 2 2 2 2 2 2 2 2 2 2 2 2 2 2 2 2 2 2 2 2 2 2 2 2 2 2 2 2 2 2 2 2 2 2 2 2 2 2 2 2 2 2 2 2 2 2 2 2 2 2 2 2 2 2 2 2 2 2 2 2 2 2 2 2 2 2 2 2 2 2 2 2 2 2 2 2 2 2 2 2 2 2 2 2 2 2 2 2 2 2 2 2 2 2 2 2 2 2 2 2 2 2 2 2 2 2 2 2 2 2 2 2 2 2 2 2 2 2 2 2 2 2 2 2 2 2 2 2 2 2 2 2 2 2 2 2 2 2 2 2 2 2 2 2 2 2 2 2 2 2 2 2 2 2 2 2 2 2 2 2 2 2 2 2 2 2 2 2 2 2 2 2 2 2 2 2 2 2 2 2 2 2 2 2 2 2 2 2 2 2 2 2 2 2 2 2 2 2 2 2 2 2 2 2 2 2 2 2 2 2 2 2 2 2 2 2 2 2 2 2 2 2 2 2 2 2 2 2 2 2 2 2 2 2 2 2 2 2 2 2 2 2 2 2 2 2 2 2 2 2 2 2 2 2 2 2 2 2 2 2 2 2 2 2 2 2 2 2 2 2 2 2 2 2 2 2 2 2 2 2 2 2 2 2 2 2 2 2 2 2 2 2 2 2 2 2 2 2 2 2 2 2 2 2 2 2 2 2 2 2 2 2 2 2 2 2 2 2 2 2 2 2 2 2 2 2 2 2 2 2 2 2 2 2 2 2 2 2 2 2 2 2 2 2 2 2 2 2 2 2 2 2 2 2 2 2 2 2 2 2 2 2 2 2 2 2 2 2 2 2 2 2 2 2 2 2 2 2 2 2 2 2 2 2 2 2 2 2 2 2 2 2 2 2 2 2 2 2 2 2 2 2 2 2 2 2 2 2 2 2 2 2 2 2 2 2 2 2 2 2 2 2 2 2 2 2 2 2 2 2 2 2 2 2 2 2 2 2 2 2 2 2 2 2 2 2 2 2 2 2 2 2 2 2 2 2 2 2 2 2 2 2 2 2 2 2 2 2 2 2 2 2 2 2 2 2 2 2 2 2
753
3	85 222 741 
3	57 740 741 
3	266 739 740 
3	89 738 739 
3	9 737 738 
3	148 736 737 
3	152 735 736 
3	218 734 735 
3	124 733 734 
3	106 732 733 
3	36 731 732 
3	25 730 731 
3	236 729 730 
1	729 
3	21 110 728 
3	255 727 728 
3	178 726 727 
3	213 725 726 
3	196 724 725 
3	44 723 724 
3	162 722 723 
3	77 721 722 
3	215 720 721 
3	259 719 720 
3	142 718 719 
3	111 717 718 
3	90 716 717 
3	242 715 716 
3	137 714 715 
1	714 
3	103 232 713 
3	88 712 713 
3	266 711 712 
3	101 710 711 
3	69 709 710 
3	5 708 709 
3	104 707 708 
3	224 706 707 
3	43 705 706 
3	223 704 705 
3	21 703 704 
3	79 702 703 
3	109 701 702 
3	157 700 701 
3	102 699 700 
3	108 698 699 
3	261 697 698 
3	205 696 697 
3	118 695 696 
3	220 694 695 
3	234 693 694 
3	3 692 693 
3	160 691 692 
3	141 690 691 
3	192 689 690 
3	248 688 689 
3	162 687 688 
3	117 686 687 
3	134 685 686 
3	153 684 685 
3	30 683 684 
3	12 682 683 
3	181 681 682 
3	222 680 681 
3	138 679 680 
3	259 678 679 
3	0 677 678 
3	100 676 677 
3	155 675 676 
1	675 
3	53 103 674 
3	217 673 674 
3	135 672 673 
3	101 671 672 
3	104 670 671 
3	24 669 670 
3	197 668 669 
3	115 667 668 
3	56 666 667 
3	214 665 666 
3	48 664 665 
3	132 663 664 
3	150 662 663 
3	223 661 662 
3	163 660 661 
3	34 659 660 
3	43 658 659 
3	81 657 658 
3	109 656 657 
3	99 655 656 
3	49 654 655 
3	102 653 654 
3	14 652 653 
3	261 651 652 
3	41 650 651 
3	205 649 650 
3	267 648 649 
3	220 647 648 
3	73 646 647 
3	71 645 646 
3	13 644 645 
3	159 643 644 
3	23 642 643 
3	237 641 642 
3	18 640 641 
3	54 639 640 
3	243 638 639 
3	60 637 638 
3	113 636 637 
3	91 635 636 
3	4 634 635 
3	195 633 634 
3	253 632 633 
3	172 631 632 
3	37 630 631 
3	245 629 630 
3	30 628 629 
3	40 627 628 
3	62 626 627 
3	12 625 626 
3	181 624 625 
3	201 623 624 
3	170 622 623 
3	6 621 622 
3	96 620 621 
3	2 619 620 
3	136 618 619 
3	61 617 618 
3	94 616 617 
3	183 615 616 
3	46 614 615 
3	199 613 614 
3	35 612 613 
3	259 611 612 
3	167 610 611 
3	100 609 610 
3	179 608 609 
3	263 607 608 
3	216 606 607 
1	606 
3	127 206 605 
3	103 604 605 
3	1 603 604 
3	211 602 603 
3	177 601 602 
3	251 600 601 
3	126 599 600 
3	184 598 599 
3	42 597 598 
3	268 596 597 
3	265 595 596 
3	241 594 595 
3	254 593 594 
3	257 592 593 
3	87 591 592 
3	205 590 591 
3	171 589 590 
3	71 588 589 
3	13 587 588 
3	233 586 587 
3	204 585 586 
3	249 584 585 
3	19 583 584 
3	227 582 583 
3	191 581 582 
3	255 580 581 
3	144 579 580 
3	74 578 579 
3	162 577 578 
3	260 576 577 
3	229 575 576 
3	112 574 575 
3	225 573 574 
3	95 572 573 
3	12 571 572 
3	151 570 571 
3	180 569 570 
3	143 568 569 
3	158 567 568 
3	238 566 567 
3	244 565 566 
3	100 564 565 
3	142 563 564 
3	36 562 563 
3	210 561 562 
3	190 560 561 
3	232 559 560 
3	154 558 559 
3	101 557 558 
3	203 556 557 
3	104 555 556 
3	24 554 555 
3	29 553 554 
3	97 552 553 
3	105 551 552 
3	250 550 551 
3	187 549 550 
3	161 548 549 
3	121 547 548 
3	176 546 547 
3	59 545 546 
3	261 544 545 
3	10 543 544 
3	234 542 543 
3	169 541 542 
3	185 540 541 
3	145 539 540 
3	159 538 539 
3	186 537 538 
3	264 536 537 
3	93 535 536 
3	140 534 535 
3	148 533 534 
3	63 532 533 
3	212 531 532 
3	208 530 531 
3	15 529 530 
3	11 528 529 
3	51 527 528 
3	120 526 527 
3	231 525 526 
3	116 524 525 
3	167 523 524 
3	166 522 523 
3	175 521 522 
3	58 520 521 
3	147 519 520 
1	519 
3	85 107 518 
3	72 517 518 
3	164 516 517 
3	248 515 516 
3	76 514 515 
3	148 513 514 
3	26 512 513 
3	152 511 512 
3	219 510 511 
3	194 509 510 
3	156 508 509 
3	84 507 508 
3	188 506 507 
3	174 505 506 
3	218 504 505 
3	36 503 504 
3	139 502 503 
3	190 501 502 
1	501 
3	103 127 500 
3	211 499 500 
3	1 498 499 
3	177 497 498 
3	154 496 497 
3	203 495 496 
3	184 494 495 
3	115 493 494 
3	105 492 493 
3	97 491 492 
3	218 490 491 
3	265 489 490 
3	250 488 489 
3	189 487 488 
3	31 486 487 
3	132 485 486 
3	236 484 485 
3	78 483 484 
3	254 482 483 
3	187 481 482 
3	161 480 481 
3	257 479 480 
3	89 478 479 
3	68 477 478 
3	87 476 477 
3	152 475 476 
3	176 474 475 
3	59 473 474 
3	174 472 473 
3	169 471 472 
3	233 470 471 
3	186 469 470 
3	249 468 469 
3	85 467 468 
3	19 466 467 
3	227 465 466 
3	191 464 465 
3	248 463 464 
3	144 462 463 
3	140 461 462 
3	229 460 461 
3	95 459 460 
3	212 458 459 
3	208 457 458 
3	15 456 457 
3	11 455 456 
3	8 454 455 
3	51 453 454 
3	83 452 453 
3	235 451 452 
3	146 450 451 
3	158 449 450 
3	120 448 449 
3	238 447 448 
3	116 446 447 
3	166 445 446 
3	36 444 445 
3	175 443 444 
3	216 442 443 
3	147 441 442 
1	441 
3	31 142 440 
1	440 
3	78 235 439 
3	89 438 439 
3	203 437 438 
3	265 436 437 
1	436 
3	206 211 435 
3	64 434 435 
3	240 433 434 
3	115 432 433 
3	42 431 432 
3	47 430 431 
3	265 429 430 
3	86 428 429 
3	254 427 428 
3	178 426 427 
3	149 425 426 
3	131 424 425 
3	122 423 424 
3	28 422 423 
3	207 421 422 
3	233 420 421 
3	249 419 420 
3	227 418 419 
3	191 417 418 
3	144 416 417 
3	248 415 416 
3	74 414 415 
3	245 413 414 
3	229 412 413 
3	92 411 412 
3	112 410 411 
3	96 409 410 
3	235 408 409 
3	83 407 408 
3	52 406 407 
3	17 405 406 
3	100 404 405 
3	142 403 404 
3	230 402 403 
3	101 401 402 
3	239 400 401 
3	193 399 400 
3	39 398 399 
3	67 397 398 
3	203 396 397 
3	104 395 396 
3	262 394 395 
3	82 393 394 
3	70 392 393 
3	218 391 392 
3	105 390 391 
3	48 389 390 
3	250 388 389 
3	132 387 388 
3	150 386 387 
3	246 385 386 
3	78 384 385 
3	79 383 384 
3	161 382 383 
3	68 381 382 
3	89 380 381 
3	14 379 380 
3	133 378 379 
3	59 377 378 
3	256 376 377 
3	226 375 376 
3	220 374 375 
3	185 373 374 
3	23 372 373 
3	55 371 372 
3	7 370 371 
3	186 369 370 
3	54 368 369 
3	141 367 368 
3	66 366 367 
3	85 365 366 
3	192 364 365 
3	22 363 364 
3	93 362 363 
3	119 361 362 
3	247 360 361 
3	208 359 360 
3	11 358 359 
3	168 357 358 
3	61 356 357 
3	165 355 356 
3	120 354 355 
3	116 353 354 
3	252 352 353 
3	98 351 352 
3	216 350 351 
3	182 349 350 
3	127 348 349 
3	130 347 348 
3	103 346 347 
3	53 345 346 
3	1 344 345 
3	177 343 344 
3	251 342 343 
3	38 341 342 
3	184 340 341 
3	214 339 340 
3	258 338 339 
3	31 337 338 
3	236 336 337 
3	257 335 336 
3	164 334 335 
3	87 333 334 
3	152 332 333 
3	205 331 332 
3	123 330 331 
3	237 329 330 
3	202 328 329 
3	243 327 328 
3	19 326 327 
3	65 325 326 
3	117 324 325 
3	198 323 324 
3	260 322 323 
3	173 321 322 
3	33 320 321 
3	128 319 320 
3	225 318 319 
3	95 317 318 
3	151 316 317 
3	201 315 316 
3	180 314 315 
3	146 313 314 
3	143 312 313 
3	158 311 312 
3	125 310 311 
3	75 309 310 
3	200 308 309 
3	238 307 308 
3	36 306 307 
3	210 305 306 
3	114 304 305 
3	228 303 304 
3	232 302 303 
3	129 301 302 
3	154 300 301 
3	266 299 300 
3	209 298 299 
3	5 297 298 
3	24 296 297 
3	32 295 296 
3	29 294 295 
3	97 293 294 
3	189 292 293 
3	187 291 292 
3	20 290 291 
3	176 289 290 
3	261 288 289 
3	221 287 288 
3	174 286 287 
3	169 285 286 
3	145 284 285 
3	264 283 284 
3	140 282 283 
3	80 281 282 
3	50 280 281 
3	45 279 280 
3	212 278 279 
3	16 277 278 
3	15 276 277 
3	8 275 276 
3	51 274 275 
3	27 273 274 
3	166 272 273 
3	175 271 272 
3	58 270 271 
3	147 269 270 
1	269 
1	206 
1	211 
1	135 
1	213 
1	76 
1	64 
1	197 
1	240 
1	42 
1	115 
1	47 
1	56 
1	265 
1	241 
1	223 
1	163 
1	86 
1	254 
1	149 
1	178 
1	157 
1	102 
1	122 
1	131 
1	28 
1	233 
1	207 
1	111 
1	204 
1	249 
1	227 
1	191 
1	144 
1	248 
1	74 
1	37 
1	245 
1	229 
1	92 
1	112 
1	139 
1	12 
1	136 
1	96 
1	183 
1	235 
1	83 
1	52 
1	17 
1	84 
1	259 
1	244 
1	100 
1	263 
1	142 
1	230 
1	190 
1	101 
1	239 
1	193 
1	39 
1	67 
1	104 
1	203 
1	262 
1	82 
1	70 
1	218 
1	105 
1	48 
1	224 
1	242 
1	250 
1	132 
1	150 
1	246 
1	78 
1	79 
1	99 
1	161 
1	68 
1	89 
1	14 
1	133 
1	59 
1	256 
1	226 
1	220 
1	234 
1	10 
1	73 
1	185 
1	159 
1	23 
1	55 
1	7 
1	186 
1	54 
1	141 
1	60 
1	66 
1	85 
1	113 
1	192 
1	9 
1	22 
1	93 
1	219 
1	253 
1	134 
1	153 
1	119 
1	40 
1	247 
1	208 
1	170 
1	6 
1	11 
1	61 
1	168 
1	57 
1	138 
1	215 
1	165 
1	35 
1	120 
1	116 
1	252 
1	98 
1	216 
1	182 
1	127 
1	103 
1	130 
1	53 
1	1 
1	177 
1	88 
1	251 
1	69 
1	126 
1	38 
1	184 
1	268 
1	214 
1	258 
1	90 
1	31 
1	43 
1	236 
1	21 
1	81 
1	109 
1	257 
1	164 
1	196 
1	87 
1	44 
1	41 
1	152 
1	194 
1	205 
1	171 
1	267 
1	71 
1	13 
1	123 
1	237 
1	160 
1	202 
1	137 
1	243 
1	19 
1	255 
1	65 
1	162 
1	117 
1	198 
1	156 
1	260 
1	173 
1	30 
1	33 
1	128 
1	225 
1	95 
1	151 
1	201 
1	181 
1	180 
1	94 
1	46 
1	146 
1	143 
1	75 
1	125 
1	158 
1	199 
1	188 
1	200 
1	238 
1	36 
1	210 
1	114 
1	232 
1	228 
1	129 
1	154 
1	217 
1	266 
1	209 
1	5 
1	24 
1	32 
1	29 
1	97 
1	124 
1	189 
1	34 
1	187 
1	49 
1	20 
1	121 
1	108 
1	176 
1	261 
1	221 
1	118 
1	174 
1	169 
1	145 
1	18 
1	3 
1	110 
1	107 
1	72 
1	264 
1	140 
1	26 
1	148 
1	91 
1	80 
1	63 
1	4 
1	195 
1	50 
1	172 
1	45 
1	62 
1	212 
1	16 
1	15 
1	8 
1	222 
1	2 
1	51 
1	77 
1	231 
1	0 
1	27 
1	167 
1	179 
1	166 
1	106 
1	175 
1	25 
1	58 
1	155 
1	147 
0	

8
 1 0 0.1 0.9 0 1 0 1
8
 1 0 0 1 0.4 0 0.6 1
8
 1 0 0 1 0.1 0 0.9 1
8
 1 0 0 1 0 0 1 1
8
 1 0 0 1 0.5 0 0.5 1
8
 1 0 0 1 0.01 0 0.99 1
8
 1 0 0 1 0 0 1 1
8
 1 0 0 1 0 0 1 1
8
 1 0 0 1 0.1 0 0.9 1
8
 1 0 0 1 0.1 0 0.9 1
8
 1 0 0 1 0 0 1 1
8
 1 0 0 1 0.1 0 0.9 1
8
 1 0 0 1 0.1 0 0.9 1
2
 0.03 1
8
 1 0 0.89 0.11 0.4 0.6 0.356 0.644
8
 1 0 0 1 0.7 0 0.3 1
8
 1 0 0 1 0.89 0 0.11 1
8
 1 0 0 1 0.89 0 0.11 1
8
 1 0 0 1 0.89 0 0.11 1
8
 1 0 0 1 0.89 0 0.11 1
8
 1 0 0 1 0.5 0 0.5 1
8
 1 0 0 1 0.89 0 0.11 1
8
 1 0 0 1 0.89 0 0.11 1
8
 1 0 0 1 0.05 0 0.95 1
8
 1 0 0 1 0.5 0 0.5 1
8
 1 0 0 1 0.9 0 0.1 1
8
 1 0 0 1 0.89 0 0.11 1
8
 1 0 0 1 0.89 0 0.11 1
8
 1 0 0 1 0.89 0 0.11 1
2
 0.03 1
8
 1 0 0.5 0.5 0.2 0.8 0.1 0.9
8
 1 0 0 1 0.6 0 0.4 1
8
 1 0 0 1 0.4 0 0.6 1
8
 1 0 0 1 0.5 0 0.5 1
8
 1 0 0 1 0.5 0 0.5 1
8
 1 0 0 1 0.1 0 0.9 1
8
 1 0 0 1 0.5 0 0.5 1
8
 1 0 0 1 0.5 0 0.5 1
8
 1 0 0 1 0.2 0 0.8 1
8
 1 0 0 1 0.5 0 0.5 1
8
 1 0 0 1 0.1 0 0.9 1
8
 1 0 0 1 0.75 0 0.25 1
8
 1 0 0 1 0.2 0 0.8 1
8
 1 0 0 1 0.1 0 0.9 1
8
 1 0 0 1 0.5 0 0.5 1
8
 1 0 0 1 0.5 0 0.5 1
8
 1 0 0 1 0.2 0 0.8 1
8
 1 0 0 1 0.5 0 0.5 1
8
 1 0 0 1 0.5 0 0.5 1
8
 1 0 0 1 0.2 0 0.8 1
8
 1 0 0 1 0.5 0 0.5 1
8
 1 0 0 1 0.5 0 0.5 1
8
 1 0 0 1 0.5 0 0.5 1
8
 1 0 0 1 0.4 0 0.6 1
8
 1 0 0 1 0.89 0 0.11 1
8
 1 0 0 1 0.5 0 0.5 1
8
 1 0 0 1 0.5 0 0.5 1
8
 1 0 0 1 0.9 0 0.1 1
8
 1 0 0 1 0.1 0 0.9 1
8
 1 0 0 1 0.1 0 0.9 1
8
 1 0 0 1 0.2 0 0.8 1
8
 1 0 0 1 0.4 0 0.6 1
8
 1 0 0 1 0.2 0 0.8 1
8
 1 0 0 1 0.2 0 0.8 1
8
 1 0 0 1 0.1 0 0.9 1
8
 1 0 0 1 0.05 0 0.95 1
8
 1 0 0 1 0.6 0 0.4 1
8
 1 0 0 1 0.5 0 0.5 1
8
 1 0 0 1 0.5 0 0.5 1
2
 0.03 1
8
 1 0 0.1 0.9 0.5 0.5 0.05 0.95
8
 1 0 0 1 0.5 0 0.5 1
8
 1 0 0 1 0.1 0 0.9 1
8
 1 0 0 1 0.1 0 0.9 1
8
 1 0 0 1 0.1 0 0.9 1
8
 1 0 0 1 0.09 0 0.91 1
8
 1 0 0 1 0.5 0 0.5 1
8
 1 0 0 1 0.01 0 0.99 1
8
 1 0 0 1 0.95 0 0.05 1
8
 1 0 0 1 0.5 0 0.5 1
8
 1 0 0 1 0.19 0 0.81 1
8
 1 0 0 1 0.01 0 0.99 1
8
 1 0 0 1 0.01 0 0.99 1
8
 1 0 0 1 0.09 0 0.91 1
8
 1 0 0 1 0.5 0 0.5 1
8
 1 0 0 1 0.01 0 0.99 1
8
 1 0 0 1 0.1 0 0.9 1
8
 1 0 0 1 0.05 0 0.95 1
8
 1 0 0 1 0.1 0 0.9 1
8
 1 0 0 1 0.19 0 0.81 1
8
 1 0 0 1 0.19 0 0.81 1
8
 1 0 0 1 0.1 0 0.9 1
8
 1 0 0 1 0.5 0 0.5 1
8
 1 0 0 1 0.05 0 0.95 1
8
 1 0 0 1 0.01 0 0.99 1
8
 1 0 0 1 0.5 0 0.5 1
8
 1 0 0 1 0.2 0 0.8 1
8
 1 0 0 1 0.1 0 0.9 1
8
 1 0 0 1 0.5 0 0.5 1
8
 1 0 0 1 0.5 0 0.5 1
8
 1 0 0 1 0.95 0 0.05 1
8
 1 0 0 1 0.89 0 0.11 1
8
 1 0 0 1 0.5 0 0.5 1
8
 1 0 0 1 0.5 0 0.5 1
8
 1 0 0 1 0.01 0 0.99 1
8
 1 0 0 1 0.5 0 0.5 1
8
 1 0 0 1 0.2 0 0.8 1
8
 1 0 0 1 0.5 0 0.5 1
8
 1 0 0 1 0.5 0 0.5 1
8
 1 0 0 1 0.09 0 0.91 1
8
 1 0 0 1 0.19 0 0.81 1
8
 1 0 0 1 0.5 0 0.5 1
8
 1 0 0 1 0.09 0 0.91 1
8
 1 0 0 1 0.5 0 0.5 1
8
 1 0 0 1 0.59 0 0.41 1
8
 1 0 0 1 0.5 0 0.5 1
8
 1 0 0 1 0.1 0 0.9 1
8
 1 0 0 1 0.1 0 0.9 1
8
 1 0 0 1 0.01 0 0.99 1
8
 1 0 0 1 0.3 0 0.7 1
8
 1 0 0 1 0.1 0 0.9 1
8
 1 0 0 1 0.5 0 0.5 1
8
 1 0 0 1 0.5 0 0.5 1
8
 1 0 0 1 0.19 0 0.81 1
8
 1 0 0 1 0.5 0 0.5 1
8
 1 0 0 1 0.19 0 0.81 1
8
 1 0 0 1 0.09 0 0.91 1
8
 1 0 0 1 0.1 0 0.9 1
8
 1 0 0 1 0.5 0 0.5 1
8
 1 0 0 1 0.5 0 0.5 1
8
 1 0 0 1 0.59 0 0.41 1
8
 1 0 0 1 0.05 0 0.95 1
8
 1 0 0 1 0.19 0 0.81 1
8
 1 0 0 1 0.05 0 0.95 1
8
 1 0 0 1 0.2 0 0.8 1
8
 1 0 0 1 0.1 0 0.9 1
8
 1 0 0 1 0.5 0 0.5 1
8
 1 0 0 1 0.5 0 0.5 1
8
 1 0 0 1 0.1 0 0.9 1
2
 0.03 1
8
 1 0 0.9 0.1 0.05 0.95 0.045 0.955
8
 1 0 0 1 0.9 0 0.1 1
8
 1 0 0 1 0.05 0 0.95 1
8
 1 0 0 1 0.05 0 0.95 1
8
 1 0 0 1 0.05 0 0.95 1
8
 1 0 0 1 0.9 0 0.1 1
8
 1 0 0 1 0.3 0 0.7 1
8
 1 0 0 1 0.1 0 0.9 1
8
 1 0 0 1 0.9 0 0.1 1
8
 1 0 0 1 0.3 0 0.7 1
8
 1 0 0 1 0.05 0 0.95 1
8
 1 0 0 1 0.3 0 0.7 1
8
 1 0 0 1 0.05 0 0.95 1
8
 1 0 0 1 0.05 0 0.95 1
8
 1 0 0 1 0.05 0 0.95 1
8
 1 0 0 1 0.5 0 0.5 1
8
 1 0 0 1 0.3 0 0.7 1
8
 1 0 0 1 0.5 0 0.5 1
8
 1 0 0 1 0.9 0 0.1 1
8
 1 0 0 1 0.05 0 0.95 1
8
 1 0 0 1 0.3 0 0.7 1
8
 1 0 0 1 0.05 0 0.95 1
8
 1 0 0 1 0.05 0 0.95 1
8
 1 0 0 1 0.05 0 0.95 1
8
 1 0 0 1 0.05 0 0.95 1
8
 1 0 0 1 0.5 0 0.5 1
8
 1 0 0 1 0.4 0 0.6 1
8
 1 0 0 1 0.9 0 0.1 1
8
 1 0 0 1 0.5 0 0.5 1
8
 1 0 0 1 0.7 0 0.3 1
8
 1 0 0 1 0.01 0 0.99 1
8
 1 0 0 1 0.9 0 0.1 1
8
 1 0 0 1 0.9 0 0.1 1
8
 1 0 0 1 0.05 0 0.95 1
8
 1 0 0 1 0.4 0 0.6 1
8
 1 0 0 1 0.9 0 0.1 1
8
 1 0 0 1 0.9 0 0.1 1
8
 1 0 0 1 0.75 0 0.25 1
8
 1 0 0 1 0.05 0 0.95 1
8
 1 0 0 1 0.05 0 0.95 1
8
 1 0 0 1 0.3 0 0.7 1
8
 1 0 0 1 0.9 0 0.1 1
8
 1 0 0 1 0.5 0 0.5 1
8
 1 0 0 1 0.5 0 0.5 1
8
 1 0 0 1 0.9 0 0.1 1
8
 1 0 0 1 0.3 0 0.7 1
8
 1 0 0 1 0.5 0 0.5 1
8
 1 0 0 1 0.05 0 0.95 1
8
 1 0 0 1 0.9 0 0.1 1
8
 1 0 0 1 0.5 0 0.5 1
8
 1 0 0 1 0.9 0 0.1 1
8
 1 0 0 1 0.9 0 0.1 1
8
 1 0 0 1 0.9 0 0.1 1
8
 1 0 0 1 0.05 0 0.95 1
8
 1 0 0 1 0.05 0 0.95 1
8
 1 0 0 1 0.05 0 0.95 1
8
 1 0 0 1 0.05 0 0.95 1
8
 1 0 0 1 0.05 0 0.95 1
8
 1 0 0 1 0.3 0 0.7 1
8
 1 0 0 1 0.05 0 0.95 1
8
 1 0 0 1 0.05 0 0.95 1
8
 1 0 0 1 0.9 0 0.1 1
8
 1 0 0 1 0.3 0 0.7 1
8
 1 0 0 1 0.5 0 0.5 1
8
 1 0 0 1 0.05 0 0.95 1
8
 1 0 0 1 0.1 0 0.9 1
8
 1 0 0 1 0.9 0 0.1 1
8
 1 0 0 1 0.89 0 0.11 1
8
 1 0 0 1 0.05 0 0.95 1
8
 1 0 0 1 0.9 0 0.1 1
8
 1 0 0 1 0.89 0 0.11 1
8
 1 0 0 1 0.05 0 0.95 1
8
 1 0 0 1 0.5 0 0.5 1
8
 1 0 0 1 0.09 0 0.91 1
8
 1 0 0 1 0.05 0 0.95 1
8
 1 0 0 1 0.02 0 0.98 1
8
 1 0 0 1 0.05 0 0.95 1
8
 1 0 0 1 0.2 0 0.8 1
8
 1 0 0 1 0.05 0 0.95 1
8
 1 0 0 1 0.05 0 0.95 1
8
 1 0 0 1 0.3 0 0.7 1
8
 1 0 0 1 0.05 0 0.95 1
8
 1 0 0 1 0.4 0 0.6 1
8
 1 0 0 1 0.05 0 0.95 1
8
 1 0 0 1 0.05 0 0.95 1
8
 1 0 0 1 0.9 0 0.1 1
8
 1 0 0 1 0.05 0 0.95 1
2
 0.03 1
8
 1 0 0 1 0 1 0 1
8
 1 0 0 1 0 0 1 1
8
 1 0 0 1 0 0 1 1
8
 1 0 0 1 0.8 0 0.2 1
8
 1 0 0 1 0.8 0 0.2 1
8
 1 0 0 1 0 0 1 1
8
 1 0 0 1 0 0 1 1
8
 1 0 0 1 0.1 0 0.9 1
8
 1 0 0 1 0 0 1 1
8
 1 0 0 1 0.9 0 0.1 1
8
 1 0 0 1 0 0 1 1
8
 1 0 0 1 0.05 0 0.95 1
8
 1 0 0 1 0 0 1 1
8
 1 0 0 1 0 0 1 1
8
 1 0 0 1 0 0 1 1
8
 1 0 0 1 0 0 1 1
8
 1 0 0 1 0.9 0 0.1 1
8
 1 0 0 1 0.5 0 0.5 1
2
 0.03 1
8
 1 0 0 1 0 1 0 1
8
 1 0 0 1 0 0 1 1
8
 1 0 0 1 0 0 1 1
8
 1 0 0 1 0 0 1 1
8
 1 0 0 1 0 0 1 1
8
 1 0 0 1 0 0 1 1
8
 1 0 0 1 0 0 1 1
8
 1 0 0 1 0 0 1 1
8
 1 0 0 1 0 0 1 1
8
 1 0 0 1 0 0 1 1
8
 1 0 0 1 0 0 1 1
8
 1 0 0 1 0 0 1 1
8
 1 0 0 1 0 0 1 1
8
 1 0 0 1 0 0 1 1
8
 1 0 0 1 0 0 1 1
8
 1 0 0 1 0 0 1 1
8
 1 0 0 1 0 0 1 1
8
 1 0 0 1 0 0 1 1
8
 1 0 0 1 0 0 1 1
8
 1 0 0 1 0 0 1 1
8
 1 0 0 1 0 0 1 1
8
 1 0 0 1 0 0 1 1
8
 1 0 0 1 0 0 1 1
8
 1 0 0 1 0 0 1 1
8
 1 0 0 1 0 0 1 1
8
 1 0 0 1 0 0 1 1
8
 1 0 0 1 0 0 1 1
8
 1 0 0 1 0 0 1 1
8
 1 0 0 1 0 0 1 1
8
 1 0 0 1 0 0 1 1
8
 1 0 0 1 0 0 1 1
8
 1 0 0 1 0 0 1 1
8
 1 0 0 1 0 0 1 1
8
 1 0 0 1 0 0 1 1
8
 1 0 0 1 0 0 1 1
8
 1 0 0 1 0 0 1 1
8
 1 0 0 1 0 0 1 1
8
 1 0 0 1 0 0 1 1
8
 1 0 0 1 0 0 1 1
8
 1 0 0 1 0 0 1 1
8
 1 0 0 1 0 0 1 1
8
 1 0 0 1 0 0 1 1
8
 1 0 0 1 0 0 1 1
8
 1 0 0 1 0 0 1 1
8
 1 0 0 1 0 0 1 1
8
 1 0 0 1 0 0 1 1
8
 1 0 0 1 0 0 1 1
8
 1 0 0 1 0 0 1 1
8
 1 0 0 1 0 0 1 1
8
 1 0 0 1 0 0 1 1
8
 1 0 0 1 0 0 1 1
8
 1 0 0 1 0 0 1 1
8
 1 0 0 1 0 0 1 1
8
 1 0 0 1 0 0 1 1
8
 1 0 0 1 0 0 1 1
8
 1 0 0 1 0 0 1 1
8
 1 0 0 1 0 0 1 1
8
 1 0 0 1 0 0 1 1
8
 1 0 0 1 0 0 1 1
8
 1 0 0 1 0 0 1 1
2
 0.03 1
8
 1 0 0.5 0.5 0.4 0.6 0.2 0.8
2
 0.03 1
8
 1 0 0 1 0 1 0 1
8
 1 0 0 1 0 0 1 1
8
 1 0 0 1 0 0 1 1
8
 1 0 0 1 0 0 1 1
2
 0.03 1
8
 1 0 0 1 0.9 0.1 0 1
8
 1 0 0 1 0.2 0 0.8 1
8
 1 0 0 1 0.5 0 0.5 1
8
 1 0 0 1 0 0 1 1
8
 1 0 0 1 0.9 0 0.1 1
8
 1 0 0 1 0.5 0 0.5 1
8
 1 0 0 1 0.89 0 0.11 1
8
 1 0 0 1 0.5 0 0.5 1
8
 1 0 0 1 0 0 1 1
8
 1 0 0 1 0.89 0 0.11 1
8
 1 0 0 1 0.5 0 0.5 1
8
 1 0 0 1 0.1 0 0.9 1
8
 1 0 0 1 0.5 0 0.5 1
8
 1 0 0 1 0.5 0 0.5 1
8
 1 0 0 1 0.1 0 0.9 1
8
 1 0 0 1 0 0 1 1
8
 1 0 0 1 0.5 0 0.5 1
8
 1 0 0 1 0.01 0 0.99 1
8
 1 0 0 1 0 0 1 1
8
 1 0 0 1 0 0 1 1
8
 1 0 0 1 0 0 1 1
8
 1 0 0 1 0.9 0 0.1 1
8
 1 0 0 1 0.5 0 0.5 1
8
 1 0 0 1 0 0 1 1
8
 1 0 0 1 0.5 0 0.5 1
8
 1 0 0 1 0.9 0 0.1 1
8
 1 0 0 1 0.5 0 0.5 1
8
 1 0 0 1 0.1 0 0.9 1
8
 1 0 0 1 0 0 1 1
8
 1 0 0 1 0.1 0 0.9 1
8
 1 0 0 1 0.5 0 0.5 1
8
 1 0 0 1 0.9 0 0.1 1
8
 1 0 0 1 0.5 0 0.5 1
8
 1 0 0 1 0.5 0 0.5 1
8
 1 0 0 1 0.9 0 0.1 1
8
 1 0 0 1 0.09 0 0.91 1
8
 1 0 0 1 0.5 0 0.5 1
8
 1 0 0 1 0.1 0 0.9 1
8
 1 0 0 1 0.5 0 0.5 1
8
 1 0 0 1 0.5 0 0.5 1
8
 1 0 0 1 0.9 0 0.1 1
8
 1 0 0 1 0.09 0 0.91 1
8
 1 0 0 1 0.5 0 0.5 1
8
 1 0 0 1 0.5 0 0.5 1
8
 1 0 0 1 0 0 1 1
8
 1 0 0 1 0 0 1 1
8
 1 0 0 1 0.5 0 0.5 1
8
 1 0 0 1 0 0 1 1
8
 1 0 0 1 0 0 1 1
8
 1 0 0 1 0.5 0 0.5 1
8
 1 0 0 1 0.1 0 0.9 1
8
 1 0 0 1 0.5 0 0.5 1
8
 1 0 0 1 0.57 0 0.43 1
8
 1 0 0 1 0 0 1 1
8
 1 0 0 1 0 0 1 1
8
 1 0 0 1 0 0 1 1
8
 1 0 0 1 0.5 0 0.5 1
8
 1 0 0 1 0.5 0 0.5 1
8
 1 0 0 1 0 0 1 1
8
 1 0 0 1 0.5 0 0.5 1
8
 1 0 0 1 0.1 0 0.9 1
8
 1 0 0 1 0.5 0 0.5 1
8
 1 0 0 1 0.1 0 0.9 1
8
 1 0 0 1 0.5 0 0.5 1
8
 1 0 0 1 0.4 0 0.6 1
8
 1 0 0 1 0.5 0 0.5 1
8
 1 0 0 1 0 0 1 1
8
 1 0 0 1 0.5 0 0.5 1
8
 1 0 0 1 0.9 0 0.1 1
8
 1 0 0 1 0.5 0 0.5 1
8
 1 0 0 1 0 0 1 1
8
 1 0 0 1 0.89 0 0.11 1
8
 1 0 0 1 0.5 0 0.5 1
8
 1 0 0 1 0.5 0 0.5 1
8
 1 0 0 1 0.5 0 0.5 1
8
 1 0 0 1 0.5 0 0.5 1
8
 1 0 0 1 0 0 1 1
8
 1 0 0 1 0.6 0 0.4 1
8
 1 0 0 1 0.5 0 0.5 1
8
 1 0 0 1 0.1 0 0.9 1
8
 1 0 0 1 0.5 0 0.5 1
8
 1 0 0 1 0 0 1 1
8
 1 0 0 1 0 0 1 1
8
 1 0 0 1 0.1 0 0.9 1
8
 1 0 0 1 0.59 0 0.41 1
8
 1 0 0 1 0 0 1 1
8
 1 0 0 1 0.4 0 0.6 1
8
 1 0 0 1 0 0 1 1
8
 1 0 0 1 0.5 0 0.5 1
8
 1 0 0 1 0.9 0 0.1 1
8
 1 0 0 1 0.5 0 0.5 1
8
 1 0 0 1 0 0 1 1
8
 1 0 0 1 0 0 1 1
8
 1 0 0 1 0.9 0 0.1 1
8
 1 0 0 1 0.5 0 0.5 1
8
 1 0 0 1 0.1 0 0.9 1
8
 1 0 0 1 0.5 0 0.5 1
8
 1 0 0 1 0.09 0 0.91 1
8
 1 0 0 1 0 0 1 1
8
 1 0 0 1 0 0 1 1
8
 1 0 0 1 0 0 1 1
8
 1 0 0 1 0.89 0 0.11 1
8
 1 0 0 1 0 0 1 1
8
 1 0 0 1 0 0 1 1
8
 1 0 0 1 0.5 0 0.5 1
8
 1 0 0 1 0.5 0 0.5 1
8
 1 0 0 1 0.5 0 0.5 1
8
 1 0 0 1 0.5 0 0.5 1
8
 1 0 0 1 0.5 0 0.5 1
8
 1 0 0 1 0 0 1 1
8
 1 0 0 1 0.5 0 0.5 1
8
 1 0 0 1 0.4 0 0.6 1
8
 1 0 0 1 0.5 0 0.5 1
8
 1 0 0 1 0.7 0 0.3 1
8
 1 0 0 1 0.5 0 0.5 1
8
 1 0 0 1 0.89 0 0.11 1
8
 1 0 0 1 0.5 0 0.5 1
8
 1 0 0 1 0.9 0 0.1 1
8
 1 0 0 1 0 0 1 1
8
 1 0 0 1 0.9 0 0.1 1
8
 1 0 0 1 0.5 0 0.5 1
8
 1 0 0 1 0.5 0 0.5 1
8
 1 0 0 1 0 0 1 1
8
 1 0 0 1 0.75 0 0.25 1
8
 1 0 0 1 0 0 1 1
8
 1 0 0 1 0.09 0 0.91 1
8
 1 0 0 1 0.5 0 0.5 1
8
 1 0 0 1 0.5 0 0.5 1
8
 1 0 0 1 0 0 1 1
8
 1 0 0 1 0 0 1 1
8
 1 0 0 1 0.9 0 0.1 1
8
 1 0 0 1 0.7 0 0.3 1
8
 1 0 0 1 0.4 0 0.6 1
8
 1 0 0 1 0.5 0 0.5 1
8
 1 0 0 1 0.1 0 0.9 1
8
 1 0 0 1 0 0 1 1
8
 1 0 0 1 0.6 0 0.4 1
8
 1 0 0 1 0.5 0 0.5 1
8
 1 0 0 1 0.4 0 0.6 1
8
 1 0 0 1 0.9 0 0.1 1
8
 1 0 0 1 0.5 0 0.5 1
8
 1 0 0 1 0.9 0 0.1 1
8
 1 0 0 1 0 0 1 1
8
 1 0 0 1 0 0 1 1
8
 1 0 0 1 0 0 1 1
8
 1 0 0 1 0.09 0 0.91 1
8
 1 0 0 1 0 0 1 1
8
 1 0 0 1 0.9 0 0.1 1
8
 1 0 0 1 0.5 0 0.5 1
8
 1 0 0 1 0 0 1 1
8
 1 0 0 1 0 0 1 1
8
 1 0 0 1 0.9 0 0.1 1
8
 1 0 0 1 0.9 0 0.1 1
8
 1 0 0 1 0 0 1 1
8
 1 0 0 1 0.05 0 0.95 1
8
 1 0 0 1 0.5 0 0.5 1
8
 1 0 0 1 0.5 0 0.5 1
8
 1 0 0 1 0 0 1 1
8
 1 0 0 1 0.5 0 0.5 1
8
 1 0 0 1 0 0 1 1
8
 1 0 0 1 0.1 0 0.9 1
8
 1 0 0 1 0 0 1 1
8
 1 0 0 1 0.5 0 0.5 1
8
 1 0 0 1 0 0 1 1
8
 1 0 0 1 0 0 1 1
8
 1 0 0 1 0.9 0 0.1 1
8
 1 0 0 1 0.01 0 0.99 1
2
 0.03 1
2
 0.9995 0.0005
2
 0.99995 5e-05
2
 0.99968 0.00032
2
 0.9999 0.0001
2
 0.9995 0.0005
2
 0.999995 5e-06
2
 0.9986 0.0014
2
 0.99999 1e-05
2
 0.99975 0.00025
2
 0.999 0.001
2
 0.99999 1e-05
2
 0.9998 0.0002
2
 0.99995 5e-05
2
 0.9999 0.0001
2
 0.9998 0.0002
2
 0.99991 9e-05
2
 0.99999 1e-05
2
 0.9999 0.0001
2
 0.99975 0.00025
2
 0.9999 0.0001
2
 0.999998 2e-06
2
 0.9999 0.0001
2
 0.99989 0.00011
2
 0.999999 1e-06
2
 0.9999 0.0001
2
 0.9999 0.0001
2
 0.9999 0.0001
2
 0.99999 1e-05
2
 0.9999 0.0001
2
 0.99998 2e-05
2
 0.99999 1e-05
2
 0.9999 0.0001
2
 0.99995 5e-05
2
 0.998 0.002
2
 0.999998 2e-06
2
 0.999999 1e-06
2
 0.99989 0.00011
2
 0.99995 5e-05
2
 0.9999 0.0001
2
 0.99996 4e-05
2
 0.9999 0.0001
2
 0.99982 0.00018
2
 0.99996 4e-05
2
 0.99981 0.00019
2
 0.9999 0.0001
2
 0.9999 0.0001
2
 0.99998 2e-05
2
 0.9999 0.0001
2
 0.9999 0.0001
2
 0.9999 0.0001
2
 0.9999 0.0001
2
 0.9991 0.0009
2
 0.99992 8e-05
2
 0.9995 0.0005
2
 0.9999 0.0001
2
 0.99999 1e-05
2
 0.9999 0.0001
2
 0.9996 0.0004
2
 0.99996 4e-05
2
 0.99995 5e-05
2
 0.9999 0.0001
2
 0.9995 0.0005
2
 0.999973 2.7e-05
2
 0.99999 1e-05
2
 0.99995 5e-05
2
 0.99999 1e-05
2
 0.9999 0.0001
2
 0.99999 1e-05
2
 0.9999 0.0001
2
 0.9991 0.0009
2
 0.999999 1e-06
2
 0.9999 0.0001
2
 0.9999 0.0001
2
 0.9995 0.0005
2
 0.99995 5e-05
2
 0.9999 0.0001
2
 0.99985 0.00015
2
 0.9999 0.0001
2
 0.99991 9e-05
2
 0.9996 0.0004
2
 0.99998 2e-05
2
 0.99995 5e-05
2
 0.99999 1e-05
2
 0.9999 0.0001
2
 0.9999 0.0001
2
 0.9995 0.0005
2
 0.99999 1e-05
2
 0.9995 0.0005
2
 0.99922 0.00078
2
 0.9997 0.0003
2
 0.9994 0.0006
2
 0.9998 0.0002
2
 0.99993 7e-05
2
 0.9991 0.0009
2
 0.9998 0.0002
2
 0.99995 5e-05
2
 0.9998 0.0002
2
 0.9998 0.0002
2
 0.9994 0.0006
2
 0.99975 0.00025
2
 0.99999 1e-05
2
 0.99998 2e-05
2
 0.9999 0.0001
2
 0.9999 0.0001
2
 0.9998 0.0002
2
 0.9995 0.0005
2
 0.9999 0.0001
2
 0.9999 0.0001
2
 0.9995 0.0005
2
 0.99996 4e-05
2
 0.9998 0.0002
2
 0.9997 0.0003
2
 0.9995 0.0005
2
 0.99984 0.00016
2
 0.99993 7e-05
2
 0.9999 0.0001
2
 0.9999 0.0001
2
 0.99997 3e-05
2
 0.9999 0.0001
2
 0.999 0.001
2
 0.9999 0.0001
2
 0.9996 0.0004
2
 0.9999 0.0001
2
 0.9999 0.0001
2
 0.999 0.001
2
 0.9999 0.0001
2
 0.99998 2e-05
2
 0.99995 5e-05
2
 0.9965 0.0035
2
 0.9999 0.0001
2
 0.9928 0.0072
2
 0.9999 0.0001
2
 0.99985 0.00015
2
 0.99996 4e-05
2
 0.9999 0.0001
2
 0.9999 0.0001
2
 0.9999 0.0001
2
 0.9995 0.0005
2
 0.999977 2.291e-05
2
 0.999999 1e-06
2
 0.9991 0.0009
2
 0.99989 0.00011
2
 0.99995 5e-05
2
 1 2e-07
2
 0.9988 0.0012
2
 0.99995 5e-05
2
 0.9999 0.0001
2
 0.994 0.006
2
 0.9999 0.0001
2
 0.99987 0.00013
2
 0.9999 0.0001
2
 0.9997 0.0003
2
 0.999999 6.2e-07
2
 0.99995 5e-05
2
 0.99999 1e-05
2
 0.9999 0.0001
2
 0.99998 2e-05
2
 0.9999 0.0001
2
 0.99974 0.00026
2
 0.9998 0.0002
2
 0.9999 0.0001
2
 1 1.2e-07
2
 0.999 0.001
2
 0.9995 0.0005
2
 0.9996 0.0004
2
 0.997 0.003
2
 0.99995 5e-05
2
 0.9999 0.0001
2
 0.999997 2.82e-06
2
 0.99998 2e-05
2
 0.9999 0.0001
2
 0.99999 1e-05
2
 0.9999 0.0001
2
 0.9995 0.0005
2
 0.9999 0.0001
2
 0.9999 0.0001
2
 0.999996 4e-06
2
 0.9995 0.0005
2
 0.999958 4.19e-05
2
 1 1.6e-07
2
 0.9999 0.0001
2
 0.9994 0.0006
2
 0.9999 0.0001
2
 0.9999 0.0001
2
 0.999907 9.332e-05
2
 0.9999 0.0001
2
 0.9994 0.0006
2
 0.9999 0.0001
2
 0.99989 0.00011
2
 0.999969 3.12e-05
2
 0.999999 1e-06
2
 0.9992 0.0008
2
 0.99995 5e-05
2
 0.999992 8e-06
2
 0.9999 0.0001
2
 0.99975 0.00025
2
 0.9999 0.0001
2
 0.9999 0.0001
2
 0.9999 0.0001
2
 0.99999 1e-05
2
 0.9999 0.0001
2
 0.9996 0.0004
2
 0.99999 1e-05
2
 0.9998 0.0002
2
 0.99998 2e-05
2
 0.9999 0.0001
2
 0.9999 0.0001
2
 0.9999 0.0001
2
 0.99999 1e-05
2
 0.9995 0.0005
2
 0.9995 0.0005
2
 0.99991 9e-05
2
 0.99991 9e-05
2
 0.9999 0.0001
2
 0.9999 0.0001
2
 0.99995 5e-05
2
 0.99998 2e-05
2
 0.99997 3e-05
2
 0.9999 0.0001
2
 0.99995 5e-05
2
 0.9999 0.0001
2
 0.99994 6e-05
2
 0.998 0.002
2
 0.9979 0.0021
2
 0.9999 0.0001
2
 0.9998 0.0002
2
 0.9999 0.0001
2
 0.999999 1e-06
2
 0.99997 3e-05
2
 0.99997 3e-05
2
 0.9999 0.0001
2
 0.99995 5e-05
2
 0.999999 1e-06
2
 0.9999 0.0001
2
 0.9999 0.0001
2
 0.9999 0.0001
2
 0.9995 0.0005
2
 0.9999 0.0001
2
 0.9985 0.0015
2
 0.9999 0.0001
2
 0.9997 0.0003
2
 0.9999 0.0001
2
 0.99995 5e-05
2
 0.999999 1e-06
2
 0.9975 0.0025
2
 0.9999 0.0001
2
 0.9995 0.0005
2
 0.99997 3e-05
2
 0.9999 0.0001
2
 0.9999 0.0001
2
 0.99999 1e-05
2
 0.9999 0.0001
2
 0.99996 4e-05
2
 0.9995 0.0005
2
 0.99997 3e-05
2
 0.9999 0.0001
2
 0.9999 0.0001
2
 0.9995 0.0005
2
 0.99996 4e-05
2
 0.9998 0.0002
2
 0.9994 0.0006
2
 0.9999 0.0001
2
 0.99997 3e-05
2
 0.9999 0.0001
2
 0.99998 2e-05
2
 0.9999 0.0001
2
 0.9999 0.0001
2
 0.99996 4e-05
2
 0.99993 7e-05
1
 1

